Gurobi Optimizer version 9.1.0 build v9.1.0rc0 (linux64)
Thread count: 8 physical cores, 16 logical processors, using up to 16 threads
Optimize a model with 255286 rows, 240480 columns and 1381170 nonzeros
Model fingerprint: 0x382f9a9d
Variable types: 0 continuous, 240480 integer (240480 binary)
Coefficient statistics:
  Matrix range     [1e+00, 1e+00]
  Objective range  [1e+01, 1e+05]
  Bounds range     [1e+00, 1e+00]
  RHS range        [1e+00, 1e+03]
Presolve removed 6030 rows and 30 columns (presolve time = 5s) ...
Presolve added 0 rows and 5970 columns
Presolve removed 30 rows and 0 columns
Presolve time: 5.19s
Presolved: 255256 rows, 246450 columns, 1039110 nonzeros
Variable types: 0 continuous, 246450 integer (246450 binary)
Found heuristic solution: objective 676302.00000

Concurrent LP optimizer: primal simplex, dual simplex, and barrier
Showing barrier log only...

Root barrier log...

Ordering time: 0.09s

Barrier statistics:
 Dense cols : 240
 AA' NZ     : 8.111e+05
 Factor NZ  : 3.235e+06 (roughly 230 MBytes of memory)
 Factor Ops : 4.332e+08 (less than 1 second per iteration)
 Threads    : 6

                  Objective                Residual
Iter       Primal          Dual         Primal    Dual     Compl     Time
   0   3.32088845e+08 -5.02737387e+08  3.81e+02 3.35e+01  3.14e+04    11s
   1   1.46658266e+07 -5.29263399e+08  3.02e+01 1.14e+04  2.37e+03    11s
   2   1.48976759e+06 -4.80706540e+08  1.69e+00 7.99e+03  7.38e+02    12s
   3   1.36610826e+06 -1.76919108e+08  1.42e+00 2.57e+03  2.82e+02    12s
   4   9.14297308e+05 -1.10673373e+08  4.28e-01 1.51e+03  1.61e+02    13s
   5   7.49273323e+05 -7.22389974e+07  5.91e-02 9.69e+02  1.00e+02    13s
   6   7.21726268e+05 -3.73479044e+06  1.36e-02 5.57e+01  6.08e+00    14s
   7   6.78173420e+05 -1.40484910e+06  6.94e-03 2.22e+01  2.84e+00    14s
   8   6.45203297e+05  9.34570721e+04  4.68e-03 1.19e+01  7.48e-01    15s
   9   6.17357503e+05  3.17996053e+05  3.61e-03 4.91e+00  4.05e-01    15s
  10   6.06332451e+05  3.98648581e+05  3.23e-03 2.78e+00  2.80e-01    16s
  11   5.96094123e+05  4.29575911e+05  2.90e-03 1.93e+00  2.24e-01    16s
  12   5.88580630e+05  4.46445527e+05  2.65e-03 1.47e+00  1.91e-01    17s
  13   5.76271609e+05  4.65934302e+05  2.28e-03 9.44e-01  1.48e-01    17s
  14   5.63989578e+05  4.79136132e+05  1.92e-03 5.98e-01  1.14e-01    18s
  15   5.50886006e+05  4.84985050e+05  1.54e-03 4.53e-01  8.85e-02    18s
  16   5.38276141e+05  4.89499937e+05  1.19e-03 3.25e-01  6.55e-02    19s
  17   5.31142024e+05  4.93304493e+05  9.57e-04 2.28e-01  5.08e-02    20s
  18   5.28243232e+05  4.95589676e+05  8.69e-04 1.72e-01  4.38e-02    20s
  19   5.24665521e+05  4.96929030e+05  7.45e-04 1.39e-01  3.72e-02    21s
  20   5.17812413e+05  4.98217286e+05  5.36e-04 1.08e-01  2.63e-02    21s
  21   5.14607869e+05  4.99217670e+05  4.23e-04 8.51e-02  2.06e-02    22s
  22   5.13134566e+05  4.99922028e+05  3.73e-04 6.99e-02  1.77e-02    22s
  23   5.10680200e+05  5.00706963e+05  2.83e-04 5.16e-02  1.34e-02    23s
  24   5.09494598e+05  5.01414236e+05  2.40e-04 3.68e-02  1.08e-02    23s
  25   5.08152675e+05  5.01888998e+05  1.94e-04 2.66e-02  8.39e-03    24s
  26   5.06779203e+05  5.02225101e+05  1.46e-04 1.93e-02  6.10e-03    25s
  27   5.05929843e+05  5.02420043e+05  1.13e-04 1.52e-02  4.70e-03    25s
  28   5.05407727e+05  5.02662031e+05  9.15e-05 1.06e-02  3.67e-03    26s
  29   5.05298599e+05  5.02719285e+05  8.77e-05 9.62e-03  3.45e-03    26s
  30   5.04795125e+05  5.02827711e+05  6.80e-05 7.53e-03  2.63e-03    27s
  31   5.04481148e+05  5.02900875e+05  5.51e-05 6.10e-03  2.11e-03    27s
  32   5.04318975e+05  5.02959184e+05  4.84e-05 5.02e-03  1.82e-03    27s
  33   5.04182984e+05  5.02985187e+05  4.25e-05 4.51e-03  1.60e-03    28s
  34   5.03989707e+05  5.03035251e+05  3.38e-05 3.58e-03  1.28e-03    28s
  35   5.03888847e+05  5.03060445e+05  2.96e-05 3.12e-03  1.11e-03    29s
  36   5.03778423e+05  5.03092860e+05  2.48e-05 2.58e-03  9.17e-04    29s
  37   5.03668825e+05  5.03111619e+05  1.98e-05 2.24e-03  7.45e-04    30s
  38   5.03558150e+05  5.03124276e+05  1.49e-05 2.01e-03  5.80e-04    30s
  39   5.03503068e+05  5.03165994e+05  1.23e-05 1.30e-03  4.51e-04    31s
  40   5.03457089e+05  5.03184705e+05  1.03e-05 9.83e-04  3.64e-04    32s
  41   5.03394440e+05  5.03192622e+05  7.47e-06 8.33e-04  2.70e-04    32s
  42   5.03377249e+05  5.03202880e+05  6.71e-06 6.60e-04  2.33e-04    33s
  43   5.03358608e+05  5.03209385e+05  5.79e-06 5.44e-04  1.99e-04    33s
  44   5.03338755e+05  5.03213336e+05  4.84e-06 4.73e-04  1.68e-04    34s
  45   5.03323381e+05  5.03217232e+05  4.13e-06 4.05e-04  1.42e-04    34s
  46   5.03308352e+05  5.03224356e+05  3.36e-06 2.87e-04  1.12e-04    35s
  47   5.03293862e+05  5.03228864e+05  2.69e-06 2.12e-04  8.67e-05    35s
  48   5.03284527e+05  5.03230809e+05  2.21e-06 1.78e-04  7.17e-05    36s
  49   5.03270533e+05  5.03233171e+05  1.48e-06 1.37e-04  4.99e-05    36s
  50   5.03265089e+05  5.03235247e+05  1.22e-06 1.04e-04  3.98e-05    37s
  51   5.03261057e+05  5.03235950e+05  1.00e-06 9.22e-05  3.35e-05    37s
  52   5.03255690e+05  5.03237772e+05  7.17e-07 6.13e-05  2.39e-05    38s
  53   5.03252957e+05  5.03238596e+05  5.79e-07 4.80e-05  1.92e-05    38s
  54   5.03250076e+05  5.03239269e+05  4.29e-07 3.72e-05  1.44e-05    39s
  55   5.03247760e+05  5.03239858e+05  3.13e-07 2.80e-05  1.05e-05    39s
  56   5.03246045e+05  5.03240756e+05  2.21e-07 1.45e-05  7.05e-06    40s
  57   5.03245122e+05  5.03241123e+05  1.72e-07 8.89e-06  5.33e-06    40s
  58   5.03244111e+05  5.03241496e+05  1.19e-07 3.41e-06  3.48e-06    41s
  59   5.03243034e+05  5.03241681e+05  6.30e-08 1.04e-06  1.80e-06    41s
  60   5.03242603e+05  5.03241715e+05  4.04e-08 7.16e-07  1.18e-06    42s
  61   5.03242187e+05  5.03241767e+05  1.89e-08 2.66e-07  5.58e-07    42s
  62   5.03241847e+05  5.03241802e+05  1.69e-09 3.10e-08  6.05e-08    42s
  63   5.03241829e+05  5.03241807e+05  2.84e-09 1.11e-07  2.97e-08    42s
  64   5.03241829e+05  5.03241807e+05  1.25e-08 1.11e-07  2.95e-08    43s
  65   5.03241829e+05  5.03241807e+05  1.31e-08 1.11e-07  2.95e-08    44s
  66   5.03241829e+05  5.03241807e+05  1.26e-08 7.99e-08  2.95e-08    44s

Barrier solved model in 66 iterations and 44.12 seconds
Optimal objective 5.03241829e+05


Root crossover log...

  151479 variables added to crossover basis                       45s
  159384 variables added to crossover basis                       50s
  161122 variables added to crossover basis                       55s
  162125 variables added to crossover basis                       60s
  163027 variables added to crossover basis                       65s
  163866 variables added to crossover basis                       70s
  164728 variables added to crossover basis                       75s

   90396 DPushes remaining with DInf 0.0000000e+00                76s
    1331 DPushes remaining with DInf 0.0000000e+00                98s
     366 DPushes remaining with DInf 0.0000000e+00               101s
       0 DPushes remaining with DInf 0.0000000e+00               102s

    1683 PPushes remaining with PInf 0.0000000e+00               102s
       0 PPushes remaining with PInf 0.0000000e+00               103s

  Push phase complete: Pinf 0.0000000e+00, Dinf 2.8583700e-09    103s


Root simplex log...

Iteration    Objective       Primal Inf.    Dual Inf.      Time
   17059    5.0324181e+05   0.000000e+00   0.000000e+00    103s
   17059    5.0324181e+05   0.000000e+00   0.000000e+00    103s

Solved with barrier

Root relaxation: objective 5.032418e+05, 17059 iterations, 94.17 seconds
Total elapsed time = 105.61s

    Nodes    |    Current Node    |     Objective Bounds      |     Work
 Expl Unexpl |  Obj  Depth IntInf | Incumbent    BestBd   Gap | It/Node Time

     0     0 503241.810    0 30629 676302.000 503241.810  25.6%     -  107s
H    0     0                    535026.00000 503241.810  5.94%     -  111s
H    0     0                    534740.00000 503241.810  5.89%     -  114s
H    0     0                    534269.00000 503241.810  5.81%     -  119s
     0     0 503241.810    0 30629 534269.000 503241.810  5.81%     -  252s

Explored 1 nodes (21416 simplex iterations) in 300.03 seconds
Thread count was 16 (of 16 available processors)

Solution count 4: 534269 534740 535026 676302 

Time limit reached
Best objective 5.342690000000e+05, best bound 5.032423313582e+05, gap 5.8073%

User-callback calls 25241, time in user-callback 0.41 sec
Result: runtime=252.80sec; objective=534269; gap=5.8073%
Solution written to /autofs/unityaccount/cremi/mdeboute/Bureau/multi-period-flp/solution//instSingle_I30_J1000_T8_1_result.txt
